System = zigzag chain of Rh2(C3H7COO)4 complexes

  ISTART =  0
  ICHARG =  2

  EDIFF  = 1E-06
  NELMIN = 4

  EDIFFG =  -1E-02
  NSW    =  50
  IBRION =  2
  ISMEAR = 0
  SIGMA  = 0.05
  LMAXMIX = 4

  ISIF = 2

  LORBIT = 11

  POTIM = 0.2

  PREC = Acc
  ADDGRID = F

  ALGO = Fast
  NSIM = 4

  LREAL = A

  ISPIN=2
  VOSKOWN = 1
  MAGMOM= 16*0 28*0 8*0 6 6
  
  LDAU = T
  LDAUTYPE = 2
  LDAUL =  2    -1  -1  -1
  LDAUU =  4.082 0   0   0
  LDAUJ =  0.633 0   0   0
