name                                    
   1.00000000000000     
    14.4249783362055695    0.0000000000000000    0.0000000000000000
     7.2124891681027901   12.4923976881942096    0.0000000000000000
     0.0000000000000000    0.0000000000000000   24.4223563931746916
   Au   
   125  
Cartesian 
     14.424978      1.665653      2.500000
      2.884996      1.665653      2.500000
      5.769991      1.665653      2.500000
      8.654987      1.665653      2.500000
     11.539983      1.665653      2.500000
     15.867476      4.164133      2.500000
      4.327494      4.164133      2.500000
      7.212489      4.164133      2.500000
     10.097485      4.164133      2.500000
     12.982481      4.164133      2.500000
     17.309975      6.662612      2.500000
      5.769991      6.662612      2.500000
      8.654987      6.662612      2.500000
     11.539983      6.662612      2.500000
     14.424978      6.662612      2.500000
     18.752472      9.161092      2.500000
      7.212489      9.161092      2.500000
     10.097485      9.161092      2.500000
     12.982481      9.161092      2.500000
     15.867476      9.161092      2.500000
     20.194969     11.659571      2.500000
      8.654987     11.659571      2.500000
     11.539983     11.659571      2.500000
     14.424978     11.659571      2.500000
     17.309975     11.659571      2.500000
      0.000000      0.000000      4.855589
      2.884996      0.000000      4.855589
      5.769991      0.000000      4.855589
      8.654987      0.000000      4.855589
     11.539983      0.000000      4.855589
     15.867476      2.498480      4.855589
      4.327494      2.498480      4.855589
      7.212489      2.498480      4.855589
     10.097485      2.498480      4.855589
     12.982481      2.498480      4.855589
      2.884996      4.996959      4.855589
      5.769991      4.996959      4.855589
      8.654987      4.996959      4.855589
     11.539983      4.996959      4.855589
     14.424978      4.996959      4.855589
      4.327494      7.495439      4.855589
      7.212489      7.495439      4.855589
     10.097485      7.495439      4.855589
     12.982481      7.495439      4.855589
     15.867476      7.495439      4.855589
     20.194969      9.993918      4.855589
      8.654987      9.993918      4.855589
     11.539983      9.993918      4.855589
     14.424978      9.993918      4.855589
     17.309975      9.993918      4.855589
      1.442498      0.832827      7.211178
      4.327494      0.832827      7.211178
      7.212489      0.832827      7.211178
     10.097485      0.832827      7.211178
     12.982481      0.832827      7.211178
      2.884996      3.331306      7.211178
      5.769991      3.331306      7.211178
      8.654987      3.331306      7.211178
     11.539983      3.331306      7.211178
     14.424978      3.331306      7.211178
      4.327494      5.829786      7.211178
      7.212489      5.829786      7.211178
     10.097485      5.829786      7.211178
     12.982481      5.829786      7.211178
     15.867476      5.829786      7.211178
      5.769991      8.328265      7.211178
      8.654987      8.328265      7.211178
     11.539983      8.328265      7.211178
     14.424978      8.328265      7.211178
     17.309975      8.328265      7.211178
      7.212489     10.826745      7.211178
     10.097485     10.826745      7.211178
     12.982481     10.826745      7.211178
     15.867476     10.826745      7.211178
     18.752472     10.826745      7.211178
     14.424978      1.665653      9.650859
      2.884996      1.665653      9.650859
      5.769991      1.665653      9.650859
      8.654987      1.665653      9.650859
     11.539983      1.665653      9.650859
     15.867476      4.164133      9.650859
      4.327494      4.164133      9.650859
      7.212489      4.164133      9.650859
     10.097485      4.164133      9.650859
     12.982481      4.164133      9.650859
     17.309975      6.662612      9.650859
      5.769991      6.662612      9.650859
      8.654987      6.662612      9.650859
     11.539983      6.662612      9.650859
     14.424978      6.662612      9.650859
     18.752472      9.161092      9.650859
      7.212489      9.161092      9.650859
     10.097485      9.161092      9.650859
     12.982481      9.161092      9.650859
     15.867476      9.161092      9.650859
     20.194969     11.659571      9.650859
      8.654987     11.659571      9.650859
     11.539983     11.659571      9.650859
     14.424978     11.659571      9.650859
     17.309975     11.659571      9.650859
      0.000000      0.000000     12.152432
      2.884996      0.000000     12.152432
      5.769991      0.000000     12.152432
      8.654987      0.000000     12.152432
     11.539983      0.000000     12.152432
     15.867476      2.498480     12.152432
      4.327494      2.498480     12.152432
      7.212489      2.498480     12.152432
     10.097485      2.498480     12.152432
     12.982481      2.498480     12.152432
      2.884996      4.996959     12.152432
      5.769991      4.996959     12.152432
      8.654987      4.996959     12.152432
     11.539983      4.996959     12.152432
     14.424978      4.996959     12.152432
      4.327494      7.495439     12.152432
      7.212489      7.495439     12.152432
     10.097485      7.495439     12.152432
     12.982481      7.495439     12.152432
     15.867476      7.495439     12.152432
     20.194969      9.993918     12.152432
      8.654987      9.993918     12.152432
     11.539983      9.993918     12.152432
     14.424978      9.993918     12.152432
     17.309975      9.993918     12.152432
