POSCAR Pt55P26
GGA=91
VOSKOWN=1

ENCUT=380

NSW=300
IBRION=2

ISPIN=2
NUPDOWN=-1
MAGMOM=3*1 6*1
LORBIT=10

ISMEAR=0
NPAR=2
