auto     ! your own title
0        ! zero for automatic k-mesh generation
G        ! Monkhorst generation scheme
25 25  1 ! number grid along each direction
 0  0  0 ! fractional shift of the grid
