name
   4.8497399999999997     
        1.0000000000        0.0000000000        0.0000000000
        0.5000000000        0.8660253952        0.0000000000
        0.0000000000        0.0000000000        2.0619662085
   C
   5
cartesian
       -0.5000000000       -0.2886752692        0.0000000000
        0.0000000000        0.0000000000        0.0000000000
       -0.2500381464       -0.1442716517        0.0000000000
        0.2500381464       -0.1442716517        0.0000000000
        0.0000000000        0.2886752692        0.0000000000
