Rb(2a+6d)+4Al(6c site)+1Al(16i site)+3Al
      1.00000
      10.3170      0.00000      0.00000
      0.00000      10.3170      0.00000
      0.00000      0.00000      10.3170
   Rb   Al   Si
     8     8    38
Selective dynamics
Direct
  0.00010310800280     0.00255320174620     0.00226771412417      T      T      T
  0.49958705902100     0.49899420142174     0.50033521652222      T      T      T
  0.24341833591461     0.46186622977257     0.04815730452538      F      F      F
  0.75173801183701     0.50801360607147     0.99713206291199      T      T      T
  0.00403942447156     0.24994361400604     0.49591398239136      T      T      T
  0.99494552612305     0.75323534011841     0.50328558683395      T      T      T
  0.50151652097702     0.00087444880046     0.25096121430397      T      T      T
  0.50455868244171     0.99532562494278     0.74634319543839      T      T      T
  0.25193181633949     0.00113508698996     0.50005036592484      T      T      T
  0.50012868642807     0.75172764062881    -0.00012339162640      T      T      T
  0.00053053442389     0.50051939487457     0.74790668487549      T      T      T
  0.74972099065781     0.99550199508667     0.50064098834991      T      T      T
  0.19037459790707     0.18104733526707     0.18704512715340      T      T      T
  0.81332916021347     0.81333643198013     0.81998193264008      T      T      T
  0.81297749280930     0.81398183107376     0.18149779736996      T      T      T
  0.99301058053970     0.31172096729279     0.11926338821650      T      T      T
  0.88505071401596     0.00446442095563     0.69643604755402      T      T      T
  0.68666058778763     0.89332526922226     0.00001800176324      T      T      T
  0.00446016807109     0.69034796953201     0.88969463109970      T      T      T
  0.50000119209290     0.25142902135849     0.99818247556686      T      T      T
  0.00045124671306     0.50719970464706     0.25313872098923      T      T      T
  0.18068167567253     0.18683898448944     0.81281471252441      T      T      T
  0.81953567266464     0.18720865249634     0.81311279535294      T      T      T
  0.18670843541622     0.82000559568405     0.18666766583920      T      T      T
  0.18455773591995     0.81463301181793     0.81705391407013      T      T      T
  0.81000703573227     0.18001969158649     0.18843483924866      T      T      T
  0.68057417869568     0.67294448614120     0.31315073370934      T      T      T
  0.31333124637604     0.31996747851372     0.68668699264526      T      T      T
  0.31668254733086     0.31600072979927     0.32452303171158      T      T      T
  0.68271189928055     0.67450529336929     0.68441271781921      T      T      T
  0.68547737598419     0.31454959511757     0.68270641565323      T      T      T
  0.31956052780151     0.68721538782120     0.31311488151550      T      T      T
  0.31596970558167     0.68405127525330     0.68403309583664      T      T      T
  0.68091493844986     0.31220173835754     0.31297972798347      T      T      T
  0.00773627171293     0.69297510385513     0.12067207694054      T      T      T
 -0.00001854770744     0.30818340182304     0.88005977869034      T      T      T
  0.11186024546623     0.99671834707260     0.30981498956680      T      T      T
  0.11337865889072     0.00000064430469     0.69339078664780      T      T      T
  0.88651496171951     0.00074489385588     0.30723524093628      T      T      T
  0.31009092926979     0.11997219175100     0.99138212203979      T      T      T
  0.69316202402115     0.12554933130741     0.99867123365402      T      T      T
  0.30682304501534     0.88719755411148    -0.00047310985974      T      T      T
  0.80667984485626     0.49338382482529     0.37998363375664      T      T      T
  0.19325490295887     0.50144445896149     0.61220902204514      T      T      T
  0.19335807859898     0.50665354728699     0.37998890876770      T      T      T
  0.80725479125977     0.49821585416794     0.61197364330292      T      T      T
  0.49951019883156     0.61236774921417     0.19256791472435      T      T      T
  0.50095504522324     0.38070839643478     0.80656701326370      T      T      T
  0.49918162822723     0.61280351877213     0.80653965473175      T      T      T
  0.49598121643066     0.37867572903633     0.19386775791645      T      T      T
  0.61601942777634     0.79411244392395     0.49784323573112      T      T      T
  0.38664284348488     0.19997967779636     0.50662708282471      T      T      T
  0.61335605382919     0.19333361089230     0.49998155236244      T      T      T
  0.38667258620262     0.80612307786942     0.49990665912628      T      T      T
