 Starting parameters for this run:
   SYSTEM =  cof 
   NWRITE =     2       write-flag
   ISTART =     0       job   : 0-new  1-cont  2-samecut
   ICHARG =     2       charge: 1-file 2-atom 10-const
   ISPIN  =     1       spin-polarized or not:
   GGA    =   PE
   PREC   =  medium    low | medium | high
#  ENCUT  =  400
   LREAL  =   .FALSE.    real-space projection (.FALSE., .TRUE., On, Auto)
   NSW    =    500     max number of geometry steps
   IBRION =    2     ionic relax: 0-MD, 1-quasi-Newton, 2-CG, 3-Damped MD
   NELM   =    90    number of ELM steps
   POTIM  = 0.1
   EDIFF  =  1E-04   energy stopping-criterion for ELM
   EDIFFG =  -0.01  
   ISIF   =     3     (1:force=y stress=y ions=y shape=y volume=n)
   ISMEAR =     0    (-1-Fermi, 1-Methfessel/Paxton)
   SIGMA  =    0.05    broadening in eV
   LWAVE  = .FALSE.
  LCHARG  = .TRUE.
   LVTOT  = .FALSE.
   ALGO   = Very_Fast  
#  IALGO  =     48    algorithm (8=CG for small, 48=RMM for big systems)
   NPAR   =  4
#  LHFCALC  = .TRUE.
#  HFSCREEN = 0.3 
