name
 1.00 
  14.56052        0.00000        0.00000
   7.28032       12.60896        0.00000
   0.00000        0.00000       10.00000
   C   H   N
  24  12   6
Selective 
cartesian
     2.200000      7.000000      1.000000  T   T   T  
     2.200000      8.481350      1.000000  T   T   T  
     2.200060     11.296330      1.000000  T   T   T  
    13.116230      4.981120      1.000000  T   T   T  
    13.124580      2.187600      1.000000  T   T   T  
     1.061820      5.028530      1.000000  T   T   T  
     3.338240      5.028560      1.000000  T   T   T  
     0.988250     10.583500      1.000000  T   T   T  
     0.988210      9.194230      1.000000  T   T   T  
     3.411820      9.194190      1.000000  T   T   T  
     3.411850     10.583450      1.000000  T   T   T  
    14.327790      2.882080      1.000000  T   T   T  
    14.339410      4.287960      1.000000  T   T   T  
     4.621180      4.288020      1.000000  T   T   T  
     4.632780      2.882150      1.000000  T   T   T  
     5.835990      2.187650      1.000000  T   T   T  
     5.844370      4.981180      1.000000  T   T   T  
     7.047590      4.286680      1.000000  T   T   T  
     7.059180      2.880790      1.000000  T   T   T  
     8.342070      2.140160      1.000000  T   T   T  
     9.480270      0.168700      1.000000  T   T   T  
    10.618490      2.140150      1.000000  T   T   T  
    11.901400      2.880760      1.000000  T   T   T  
    11.913000      4.286640      1.000000  T   T   T  
    13.109960      1.098610      1.000000  T   T   T  
    13.130850      6.070110      1.000000  T   T   T  
    15.278050      2.349970      1.000000  T   T   T  
     3.682510      2.350070      1.000000  T   T   T  
     0.052400     11.140560      1.000000  T   T   T  
     4.347670      8.637150      1.000000  T   T   T  
     0.052330      8.637240      1.000000  T   T   T  
     4.347720     11.140460      1.000000  T   T   T  
     5.829780      6.070170      1.000000  T   T   T  
     5.850570      1.098660      1.000000  T   T   T  
     7.997860      4.818770      1.000000  T   T   T  
    10.962750      4.818750      1.000000  T   T   T  
     2.200040      4.311320      1.000000  T   T   T  
     1.009810      6.372840      1.000000  T   T   T  
     3.390210      6.372870      1.000000  T   T   T  
     8.290070      0.795840      1.000000  T   T   T  
     9.480290      2.857350      1.000000  T   T   T  
    10.670480      0.795820      1.000000  T   T   T  
