C H O Rh # Rh2(O2R)4 / DUKJOI
   1.00000000000000     
     5.0118999999999998   -1.4511000000000001   -0.3721800000000000
     0.0000000000000000    8.8369999999999997   -0.2653600000000000
     0.0000000000000000    0.0000000000000000   11.7599999999999998
   C    H    O    Rh
    16    28     8     2
Direct
  0.4130109316716229  0.2043631940667915  0.5057612529501530
  0.2439859221874603  0.1298570465387246  0.6006933086593468
  0.4085007115741030  0.1522824940773081  0.7155133768981573
  0.2538177526832762  0.0930655066520299  0.8159551596334433
  0.0652657454305820  0.5984029249020612  0.6838091244412389
  0.0210153018572460  0.5116433079212175  0.7940187052710431
  0.7953241190027598  0.5443665390425614  0.8584998052796970
  0.8650103291237632  0.7098571062994787  0.9113397749431177
  0.1349896708762369  0.2901428937005213  0.0886602250568823
  0.2046758809972402  0.4556334609574387  0.1415001947203100
  0.9789846981427540  0.4883566920787826  0.2059812947289569
  0.9347342545694179  0.4015970750979388  0.3161908755587612
  0.7461822473167239  0.9069344933479700  0.1840448403665567
  0.5914992884258969  0.8477175059226919  0.2844866231018426
  0.7560140778125398  0.8701429534612825  0.3993066913406532
  0.5869890683283771  0.7956368059332085  0.4942387470498470
  0.7945888995165019  0.4541136451470349  0.1487587193693687
  0.0248132013047689  0.6162744886571323  0.2241848958112782
  0.2474192972387553  0.5376182272422898  0.0719680167996667
  0.3883847236281124  0.4739924423710281  0.1980463109589160
  0.7725154110067730  0.4286002512508240  0.3600162905690522
  0.1155042124896958  0.4346772517063998  0.3758884215776935
  0.8798092555114534  0.2730320282534041  0.2995222693787511
  0.4959344548025305  0.7210097085533129  0.2646534026929325
  0.4266893824469568  0.9024690216199810  0.2867833874521307
  0.8439172833743505  0.9970949639300560  0.4196103871130755
  0.9247916909212656  0.8194238631672166  0.3927368272352459
  0.5081759446342736  0.6672833622475652  0.4777962823076574
  0.4146579977562724  0.8430672960294335  0.5009575495304890
  0.7021902755088881  0.8165112490863600  0.5778633184981872
  0.2978097244911189  0.1834887509136400  0.4221366815018129
  0.5853420022437277  0.1569327039705665  0.4990424504695110
  0.4918240553657263  0.3327166377524276  0.5222037176923356
  0.0752083090787344  0.1805761368327834  0.6072631727647541
  0.1560827166256495  0.0029050360699441  0.5803896128869246
  0.5733106175530432  0.0975309783800190  0.7132166125478694
  0.5040655451974695  0.2789902914466941  0.7353465973070674
  0.1201907444885466  0.7269679717465959  0.7004777306212487
  0.8844957875103042  0.5653227482936003  0.6241115784223066
  0.2274845889932270  0.5713997487491761  0.6399837094309477
  0.6116152763718947  0.5260075576289720  0.8019536890410840
  0.7525807027612518  0.4623817727577102  0.9280319832003333
  0.9751867986952312  0.3837255113428678  0.7758151041887147
  0.2054111004834980  0.5458863548529650  0.8512412806306313
  0.6178444531369961  0.9494822300053493  0.0987012129596626
  0.0088452823237205  0.0913381869686511  0.8139217157857315
  0.9195668455620521  0.2458741100765810  0.0224473247451646
  0.7055225476760351  0.7935158741208451  0.8868480605355840
  0.2944774523239649  0.2064841258791550  0.1131519394644160
  0.0804331544379479  0.7541258899234190  0.9775526752548352
  0.9911546976762778  0.9086618130313561  0.1860782842142686
  0.3821555468630038  0.0505177699946508  0.9012987870403374
  0.8022613194226912  0.0204223155236652  0.9538993717848435
  0.1977386805773088  0.9795776844763349  0.0461006282151565
 
  0.00000000E+00  0.00000000E+00  0.00000000E+00
  0.00000000E+00  0.00000000E+00  0.00000000E+00
  0.00000000E+00  0.00000000E+00  0.00000000E+00
  0.00000000E+00  0.00000000E+00  0.00000000E+00
  0.00000000E+00  0.00000000E+00  0.00000000E+00
  0.00000000E+00  0.00000000E+00  0.00000000E+00
  0.00000000E+00  0.00000000E+00  0.00000000E+00
  0.00000000E+00  0.00000000E+00  0.00000000E+00
  0.00000000E+00  0.00000000E+00  0.00000000E+00
  0.00000000E+00  0.00000000E+00  0.00000000E+00
  0.00000000E+00  0.00000000E+00  0.00000000E+00
  0.00000000E+00  0.00000000E+00  0.00000000E+00
  0.00000000E+00  0.00000000E+00  0.00000000E+00
  0.00000000E+00  0.00000000E+00  0.00000000E+00
  0.00000000E+00  0.00000000E+00  0.00000000E+00
  0.00000000E+00  0.00000000E+00  0.00000000E+00
  0.00000000E+00  0.00000000E+00  0.00000000E+00
  0.00000000E+00  0.00000000E+00  0.00000000E+00
  0.00000000E+00  0.00000000E+00  0.00000000E+00
  0.00000000E+00  0.00000000E+00  0.00000000E+00
  0.00000000E+00  0.00000000E+00  0.00000000E+00
  0.00000000E+00  0.00000000E+00  0.00000000E+00
  0.00000000E+00  0.00000000E+00  0.00000000E+00
  0.00000000E+00  0.00000000E+00  0.00000000E+00
  0.00000000E+00  0.00000000E+00  0.00000000E+00
  0.00000000E+00  0.00000000E+00  0.00000000E+00
  0.00000000E+00  0.00000000E+00  0.00000000E+00
  0.00000000E+00  0.00000000E+00  0.00000000E+00
  0.00000000E+00  0.00000000E+00  0.00000000E+00
  0.00000000E+00  0.00000000E+00  0.00000000E+00
  0.00000000E+00  0.00000000E+00  0.00000000E+00
  0.00000000E+00  0.00000000E+00  0.00000000E+00
  0.00000000E+00  0.00000000E+00  0.00000000E+00
  0.00000000E+00  0.00000000E+00  0.00000000E+00
  0.00000000E+00  0.00000000E+00  0.00000000E+00
  0.00000000E+00  0.00000000E+00  0.00000000E+00
  0.00000000E+00  0.00000000E+00  0.00000000E+00
  0.00000000E+00  0.00000000E+00  0.00000000E+00
  0.00000000E+00  0.00000000E+00  0.00000000E+00
  0.00000000E+00  0.00000000E+00  0.00000000E+00
  0.00000000E+00  0.00000000E+00  0.00000000E+00
  0.00000000E+00  0.00000000E+00  0.00000000E+00
  0.00000000E+00  0.00000000E+00  0.00000000E+00
  0.00000000E+00  0.00000000E+00  0.00000000E+00
  0.00000000E+00  0.00000000E+00  0.00000000E+00
  0.00000000E+00  0.00000000E+00  0.00000000E+00
  0.00000000E+00  0.00000000E+00  0.00000000E+00
  0.00000000E+00  0.00000000E+00  0.00000000E+00
  0.00000000E+00  0.00000000E+00  0.00000000E+00
  0.00000000E+00  0.00000000E+00  0.00000000E+00
  0.00000000E+00  0.00000000E+00  0.00000000E+00
  0.00000000E+00  0.00000000E+00  0.00000000E+00
  0.00000000E+00  0.00000000E+00  0.00000000E+00
  0.00000000E+00  0.00000000E+00  0.00000000E+00
