not only gamma point
0
Gamma
14 8  6
0  0  0
