 Pt3P6-p2                         
   1.00000000000000     
    12.0000000000000000    0.0000000000000000    0.0000000000000000
     0.0000000000000000   12.0000000000000000    0.0000000000000000
     0.0000000000000000    0.0000000000000000   12.0000000000000000
   Pt   P 
     3     6
Cartesian
   0.7390    2.9839    2.6940 
   3.0436    2.6303    2.7235 
   1.5542    0.6294    2.9276 
   1.8715    0.8184    4.9046 
   2.5559    2.8617    4.7928 
   0.5641    3.1017    4.7922 
   1.8604    2.4253    0.5458 
   0.5528    0.5608    0.7026 
   2.5445    0.2551    0.7281 
